instances/knapsack/discrete/knapsack_50_20.lp
\ Model knapsack_50_20
\ LP format - for model browsing. Use MPS format to capture full model detail.
\ Signature: 0xe2d4f45d0ac270ee
Minimize
  - 74 x[0] - 59 x[1] - 84 x[2] - 92 x[3] - 10 x[4] - 37 x[5] - 34 x[6]
   - 96 x[7] - 55 x[8] - 19 x[9] - 19 x[10] - 39 x[11] - 7 x[12] - 94 x[13]
   - 55 x[14] - 88 x[15] - 98 x[16] - 34 x[17] - 27 x[18] - 22 x[19]
   - 6 x[20] - 79 x[21] - 68 x[22] - 100 x[23] - 77 x[24] - 7 x[25]
   - 92 x[26] - 4 x[27] - 14 x[28] - 69 x[29] - 41 x[30] - 84 x[31]
   - 40 x[32] - 39 x[33] - 76 x[34] - 17 x[35] - 45 x[36] - 35 x[37]
   - 3 x[38] - 92 x[39] - 72 x[40] - 10 x[41] - 14 x[42] - 23 x[43]
   - 51 x[44] - 3 x[45] - 57 x[46] - 93 x[47] - 5 x[48] - 94 x[49]
Subject To
 primal_upper: 24 x[0] + 36 x[1] + 14 x[2] + 27 x[3] + 40 x[4] + 18 x[5]
   + x[6] + 84 x[7] + 13 x[8] + 90 x[9] + 24 x[10] + 39 x[11] + 52 x[12]
   + 100 x[13] + 65 x[14] + 81 x[15] + 85 x[16] + 72 x[17] + 25 x[18]
   + 78 x[19] + 73 x[20] + 12 x[21] + 16 x[22] + 15 x[23] + 17 x[24]
   + 16 x[25] + 58 x[26] + 52 x[27] + 14 x[28] + 3 x[29] + 90 x[30]
   + 60 x[31] + 68 x[32] + 97 x[33] + 12 x[34] + 57 x[35] + 16 x[36]
   + 9 x[37] + 52 x[38] + 75 x[39] + 59 x[40] + 22 x[41] + 6 x[42]
   + 78 x[43] + 39 x[44] + 55 x[45] + 14 x[46] + 2 x[47] + 95 x[48]
   + 60 x[49] + 2.4 r[0] + 3.6 r[1] + 1.4 r[2] + 2.7 r[3] + 4 r[4]
   + 1.8 r[5] + 0.1 r[6] + 8.4 r[7] + 1.3 r[8] + 9 r[9] + 2.4 r[10]
   + 3.9 r[11] + 5.2 r[12] + 10 r[13] + 6.5 r[14] + 8.1 r[15] + 8.5 r[16]
   + 7.2 r[17] + 2.5 r[18] + 7.8 r[19] + 7.3 r[20] + 1.2 r[21] + 1.6 r[22]
   + 1.5 r[23] + 1.7 r[24] + 1.6 r[25] + 5.8 r[26] + 5.2 r[27] + 1.4 r[28]
   + 0.3 r[29] + 9 r[30] + 6 r[31] + 6.8 r[32] + 9.7 r[33] + 1.2 r[34]
   + 5.7 r[35] + 1.6 r[36] + 0.9 r[37] + 5.2 r[38] + 7.5 r[39] + 5.9 r[40]
   + 2.2 r[41] + 0.6 r[42] + 7.8 r[43] + 3.9 r[44] + 5.5 r[45] + 1.4 r[46]
   + 0.2 r[47] + 9.5 r[48] + 6 r[49] <= 210
 primal_lower: 2.851524070039116 x[0] + 4.10104636135639 x[1]
   + 1.737753111729519 x[2] + 3.2452070168173644e-04 x[3]
   + 2.713426287812037 x[4] + 2.672257645457485 x[5]
   + 1.05741691478764 x[6] + 1.292331072796674 x[7]
   + 3.586879284816949 x[8] + 2.764500102380257 x[9]
   + 2.69562549724838 x[10] + 1.589880346933517 x[11]
   + 4.264255610965987 x[12] + 2.838163906439011 x[13]
   + 3.938282178152943 x[14] + 1.212855866516503 x[15]
   + 2.416431509799564 x[16] + 1.710656948265763 x[17]
   + 1.842119984427381 x[18] + 2.961185163685208 x[19]
   + 2.903948902134169 x[20] + 0.1698637176174889 x[21]
   + 0.4003746370551226 x[22] + 3.50089446939382 x[23]
   + 0.6376840960559588 x[24] + 0.8923066549292178 x[25]
   + 0.3443652527438301 x[26] + 1.747348193291938 x[27]
   + 0.9675125377232707 x[28] + 2.602971878712482 x[29]
   + 2.435887123005213 x[30] + 0.0313324871369054 x[31]
   + 1.22993598431969 x[32] + 3.628572096536651 x[33]
   + 3.020904121997242 x[34] + 0.5943185167521047 x[35]
   + 2.442287485410017 x[36] + 1.326081246194332 x[37]
   + 0.4565774373442141 x[38] + 0.4550568238330372 x[39]
   + 1.215535409369697 x[40] + 3.662501033739356 x[41]
   + 3.347731574558529 x[42] + 1.166185599640405 x[43]
   + 3.548712398736579 x[44] + 1.249313835552669 x[45]
   + 1.617465042682668 x[46] + 2.796215690958822 x[47]
   + 0.00963021889162863 x[48] + 3.971211325599444 x[49] + 79 u[0]
   + 91 u[1] + 89 u[2] + 78 u[3] + 35 u[4] + 45 u[5] + 28 u[6] + 15 u[7]
   + 44 u[8] + 13 u[9] + 95 u[10] + 94 u[11] + 39 u[12] + 55 u[13]
   + 8 u[14] + 20 u[15] + 40 u[16] + 43 u[17] + 16 u[18] + 53 u[19]
   + 8 u[20] + 3 u[21] + 31 u[22] + 86 u[23] + 4 u[24] + 55 u[25]
   + 73 u[26] + 35 u[27] + 69 u[28] + 74 u[29] + 49 u[30] + 91 u[31]
   + 39 u[32] + 60 u[33] + 51 u[34] + 36 u[35] + 95 u[36] + 16 u[37]
   + 35 u[38] + 98 u[39] + 34 u[40] + 5 u[41] + 29 u[42] + 45 u[43]
   + 42 u[44] + 82 u[45] + 45 u[46] + 13 u[47] + 6 u[48] + 47 u[49]
   <= 95936
 mccormick1[0]: - u[0] + r[0] <= 0
 mccormick1[1]: - u[1] + r[1] <= 0
 mccormick1[2]: - u[2] + r[2] <= 0
 mccormick1[3]: - u[3] + r[3] <= 0
 mccormick1[4]: - u[4] + r[4] <= 0
 mccormick1[5]: - u[5] + r[5] <= 0
 mccormick1[6]: - u[6] + r[6] <= 0
 mccormick1[7]: - u[7] + r[7] <= 0
 mccormick1[8]: - u[8] + r[8] <= 0
 mccormick1[9]: - u[9] + r[9] <= 0
 mccormick1[10]: - u[10] + r[10] <= 0
 mccormick1[11]: - u[11] + r[11] <= 0
 mccormick1[12]: - u[12] + r[12] <= 0
 mccormick1[13]: - u[13] + r[13] <= 0
 mccormick1[14]: - u[14] + r[14] <= 0
 mccormick1[15]: - u[15] + r[15] <= 0
 mccormick1[16]: - u[16] + r[16] <= 0
 mccormick1[17]: - u[17] + r[17] <= 0
 mccormick1[18]: - u[18] + r[18] <= 0
 mccormick1[19]: - u[19] + r[19] <= 0
 mccormick1[20]: - u[20] + r[20] <= 0
 mccormick1[21]: - u[21] + r[21] <= 0
 mccormick1[22]: - u[22] + r[22] <= 0
 mccormick1[23]: - u[23] + r[23] <= 0
 mccormick1[24]: - u[24] + r[24] <= 0
 mccormick1[25]: - u[25] + r[25] <= 0
 mccormick1[26]: - u[26] + r[26] <= 0
 mccormick1[27]: - u[27] + r[27] <= 0
 mccormick1[28]: - u[28] + r[28] <= 0
 mccormick1[29]: - u[29] + r[29] <= 0
 mccormick1[30]: - u[30] + r[30] <= 0
 mccormick1[31]: - u[31] + r[31] <= 0
 mccormick1[32]: - u[32] + r[32] <= 0
 mccormick1[33]: - u[33] + r[33] <= 0
 mccormick1[34]: - u[34] + r[34] <= 0
 mccormick1[35]: - u[35] + r[35] <= 0
 mccormick1[36]: - u[36] + r[36] <= 0
 mccormick1[37]: - u[37] + r[37] <= 0
 mccormick1[38]: - u[38] + r[38] <= 0
 mccormick1[39]: - u[39] + r[39] <= 0
 mccormick1[40]: - u[40] + r[40] <= 0
 mccormick1[41]: - u[41] + r[41] <= 0
 mccormick1[42]: - u[42] + r[42] <= 0
 mccormick1[43]: - u[43] + r[43] <= 0
 mccormick1[44]: - u[44] + r[44] <= 0
 mccormick1[45]: - u[45] + r[45] <= 0
 mccormick1[46]: - u[46] + r[46] <= 0
 mccormick1[47]: - u[47] + r[47] <= 0
 mccormick1[48]: - u[48] + r[48] <= 0
 mccormick1[49]: - u[49] + r[49] <= 0
 mccormick2[0]: - x[0] + r[0] <= 0
 mccormick2[1]: - x[1] + r[1] <= 0
 mccormick2[2]: - x[2] + r[2] <= 0
 mccormick2[3]: - x[3] + r[3] <= 0
 mccormick2[4]: - x[4] + r[4] <= 0
 mccormick2[5]: - x[5] + r[5] <= 0
 mccormick2[6]: - x[6] + r[6] <= 0
 mccormick2[7]: - x[7] + r[7] <= 0
 mccormick2[8]: - x[8] + r[8] <= 0
 mccormick2[9]: - x[9] + r[9] <= 0
 mccormick2[10]: - x[10] + r[10] <= 0
 mccormick2[11]: - x[11] + r[11] <= 0
 mccormick2[12]: - x[12] + r[12] <= 0
 mccormick2[13]: - x[13] + r[13] <= 0
 mccormick2[14]: - x[14] + r[14] <= 0
 mccormick2[15]: - x[15] + r[15] <= 0
 mccormick2[16]: - x[16] + r[16] <= 0
 mccormick2[17]: - x[17] + r[17] <= 0
 mccormick2[18]: - x[18] + r[18] <= 0
 mccormick2[19]: - x[19] + r[19] <= 0
 mccormick2[20]: - x[20] + r[20] <= 0
 mccormick2[21]: - x[21] + r[21] <= 0
 mccormick2[22]: - x[22] + r[22] <= 0
 mccormick2[23]: - x[23] + r[23] <= 0
 mccormick2[24]: - x[24] + r[24] <= 0
 mccormick2[25]: - x[25] + r[25] <= 0
 mccormick2[26]: - x[26] + r[26] <= 0
 mccormick2[27]: - x[27] + r[27] <= 0
 mccormick2[28]: - x[28] + r[28] <= 0
 mccormick2[29]: - x[29] + r[29] <= 0
 mccormick2[30]: - x[30] + r[30] <= 0
 mccormick2[31]: - x[31] + r[31] <= 0
 mccormick2[32]: - x[32] + r[32] <= 0
 mccormick2[33]: - x[33] + r[33] <= 0
 mccormick2[34]: - x[34] + r[34] <= 0
 mccormick2[35]: - x[35] + r[35] <= 0
 mccormick2[36]: - x[36] + r[36] <= 0
 mccormick2[37]: - x[37] + r[37] <= 0
 mccormick2[38]: - x[38] + r[38] <= 0
 mccormick2[39]: - x[39] + r[39] <= 0
 mccormick2[40]: - x[40] + r[40] <= 0
 mccormick2[41]: - x[41] + r[41] <= 0
 mccormick2[42]: - x[42] + r[42] <= 0
 mccormick2[43]: - x[43] + r[43] <= 0
 mccormick2[44]: - x[44] + r[44] <= 0
 mccormick2[45]: - x[45] + r[45] <= 0
 mccormick2[46]: - x[46] + r[46] <= 0
 mccormick2[47]: - x[47] + r[47] <= 0
 mccormick2[48]: - x[48] + r[48] <= 0
 mccormick2[49]: - x[49] + r[49] <= 0
 mccormick3[0]: x[0] + u[0] - r[0] <= 1
 mccormick3[1]: x[1] + u[1] - r[1] <= 1
 mccormick3[2]: x[2] + u[2] - r[2] <= 1
 mccormick3[3]: x[3] + u[3] - r[3] <= 1
 mccormick3[4]: x[4] + u[4] - r[4] <= 1
 mccormick3[5]: x[5] + u[5] - r[5] <= 1
 mccormick3[6]: x[6] + u[6] - r[6] <= 1
 mccormick3[7]: x[7] + u[7] - r[7] <= 1
 mccormick3[8]: x[8] + u[8] - r[8] <= 1
 mccormick3[9]: x[9] + u[9] - r[9] <= 1
 mccormick3[10]: x[10] + u[10] - r[10] <= 1
 mccormick3[11]: x[11] + u[11] - r[11] <= 1
 mccormick3[12]: x[12] + u[12] - r[12] <= 1
 mccormick3[13]: x[13] + u[13] - r[13] <= 1
 mccormick3[14]: x[14] + u[14] - r[14] <= 1
 mccormick3[15]: x[15] + u[15] - r[15] <= 1
 mccormick3[16]: x[16] + u[16] - r[16] <= 1
 mccormick3[17]: x[17] + u[17] - r[17] <= 1
 mccormick3[18]: x[18] + u[18] - r[18] <= 1
 mccormick3[19]: x[19] + u[19] - r[19] <= 1
 mccormick3[20]: x[20] + u[20] - r[20] <= 1
 mccormick3[21]: x[21] + u[21] - r[21] <= 1
 mccormick3[22]: x[22] + u[22] - r[22] <= 1
 mccormick3[23]: x[23] + u[23] - r[23] <= 1
 mccormick3[24]: x[24] + u[24] - r[24] <= 1
 mccormick3[25]: x[25] + u[25] - r[25] <= 1
 mccormick3[26]: x[26] + u[26] - r[26] <= 1
 mccormick3[27]: x[27] + u[27] - r[27] <= 1
 mccormick3[28]: x[28] + u[28] - r[28] <= 1
 mccormick3[29]: x[29] + u[29] - r[29] <= 1
 mccormick3[30]: x[30] + u[30] - r[30] <= 1
 mccormick3[31]: x[31] + u[31] - r[31] <= 1
 mccormick3[32]: x[32] + u[32] - r[32] <= 1
 mccormick3[33]: x[33] + u[33] - r[33] <= 1
 mccormick3[34]: x[34] + u[34] - r[34] <= 1
 mccormick3[35]: x[35] + u[35] - r[35] <= 1
 mccormick3[36]: x[36] + u[36] - r[36] <= 1
 mccormick3[37]: x[37] + u[37] - r[37] <= 1
 mccormick3[38]: x[38] + u[38] - r[38] <= 1
 mccormick3[39]: x[39] + u[39] - r[39] <= 1
 mccormick3[40]: x[40] + u[40] - r[40] <= 1
 mccormick3[41]: x[41] + u[41] - r[41] <= 1
 mccormick3[42]: x[42] + u[42] - r[42] <= 1
 mccormick3[43]: x[43] + u[43] - r[43] <= 1
 mccormick3[44]: x[44] + u[44] - r[44] <= 1
 mccormick3[45]: x[45] + u[45] - r[45] <= 1
 mccormick3[46]: x[46] + u[46] - r[46] <= 1
 mccormick3[47]: x[47] + u[47] - r[47] <= 1
 mccormick3[48]: x[48] + u[48] - r[48] <= 1
 mccormick3[49]: x[49] + u[49] - r[49] <= 1
Bounds
Binaries
 x[0] x[1] x[2] x[3] x[4] x[5] x[6] x[7] x[8] x[9] x[10] x[11] x[12] x[13]
 x[14] x[15] x[16] x[17] x[18] x[19] x[20] x[21] x[22] x[23] x[24] x[25]
 x[26] x[27] x[28] x[29] x[30] x[31] x[32] x[33] x[34] x[35] x[36] x[37]
 x[38] x[39] x[40] x[41] x[42] x[43] x[44] x[45] x[46] x[47] x[48] x[49]
 u[0] u[1] u[2] u[3] u[4] u[5] u[6] u[7] u[8] u[9] u[10] u[11] u[12] u[13]
 u[14] u[15] u[16] u[17] u[18] u[19] u[20] u[21] u[22] u[23] u[24] u[25]
 u[26] u[27] u[28] u[29] u[30] u[31] u[32] u[33] u[34] u[35] u[36] u[37]
 u[38] u[39] u[40] u[41] u[42] u[43] u[44] u[45] u[46] u[47] u[48] u[49]
 r[0] r[1] r[2] r[3] r[4] r[5] r[6] r[7] r[8] r[9] r[10] r[11] r[12] r[13]
 r[14] r[15] r[16] r[17] r[18] r[19] r[20] r[21] r[22] r[23] r[24] r[25]
 r[26] r[27] r[28] r[29] r[30] r[31] r[32] r[33] r[34] r[35] r[36] r[37]
 r[38] r[39] r[40] r[41] r[42] r[43] r[44] r[45] r[46] r[47] r[48] r[49]
End
