instances/knapsack/discrete_knapsack_uncertainty/knapsack_50_20.kp
33306
50
210

24 2.4 74
36 3.6 59
14 1.4 84
27 2.7 92
40 4.0 10
18 1.8 37
1 0.1 34
84 8.4 96
13 1.3 55
90 9.0 19
24 2.4 19
39 3.9 39
52 5.2 7
100 10.0 94
65 6.5 55
81 8.1 88
85 8.5 98
72 7.2 34
25 2.5 27
78 7.8 22
73 7.3 6
12 1.2 79
16 1.6 68
15 1.5 100
17 1.7 77
16 1.6 7
58 5.8 92
52 5.2 4
14 1.4 14
3 0.3 69
90 9.0 41
60 6.0 84
68 6.8 40
97 9.7 39
12 1.2 76
57 5.7 17
16 1.6 45
9 0.9 35
52 5.2 3
75 7.5 92
59 5.9 72
22 2.2 10
6 0.6 14
78 7.8 23
39 3.9 51
55 5.5 3
14 1.4 57
2 0.2 93
95 9.5 5
60 6.0 94

95936
222

[2.851524070039116 4.10104636135639 1.737753111729519 0.00032452070168173644 2.7134262878120365 2.6722576454574853 1.05741691478764 1.2923310727966737 3.586879284816949 2.764500102380257 2.69562549724838 1.589880346933517 4.2642556109659875 2.8381639064390107 3.938282178152943 1.212855866516503 2.4164315097995637 1.7106569482657625 1.8421199844273806 2.9611851636852085 2.903948902134169 0.16986371761748895 0.40037463705512255 3.5008944693938204 0.6376840960559588 0.8923066549292178 0.34436525274383006 1.747348193291938 0.9675125377232707 2.6029718787124816 2.435887123005213 0.0313324871369054 1.22993598431969 3.6285720965366512 3.0209041219972423 0.5943185167521047 2.4422874854100165 1.3260812461943323 0.4565774373442141 0.45505682383303725 1.215535409369697 3.6625010337393564 3.347731574558529 1.166185599640405 3.5487123987365785 1.2493138355526687 1.6174650426826684 2.7962156909588223 0.009630218891628628 3.971211325599444]

[79 91 89 78 35 45 28 15 44 13 95 94 39 55 8 20 40 43 16 53 8 3 31 86 4 55 73 35 69 74 49 91 39 60 51 36 95 16 35 98 34 5 29 45 42 82 45 13 6 47]
